!RI-MP2 cc-pVDZ cc-pVDZ/C nopop nomoprint MINIPRINT
%maxcore 32000
%pal
   nprocs 8
   end
%scf
   SCFMode Direct
   MaxDisk 3000
   end
%method
   FrozenCore FC_ELECTRONS
   end
%base "ocoords"
* xyz 0 1
N          0.81237       -1.06063        0.03667
C         -1.68843        0.32243       -0.02643
C         -0.44464        1.06194        0.00198
C         -1.61708       -1.09241        0.09259
C          0.77833        0.32797       -0.01367
C         -2.96907        0.92392       -0.02348
C         -0.37373        2.47241       -0.08175
C         -0.32786       -1.71359        0.07305
C         -2.79534       -1.87447        0.09068
C          2.02024        1.00281        0.01390
C         -4.11821        0.14615       -0.01097
C          0.85170        3.12296       -0.07018
C         -4.03599       -1.26016        0.06503
C          2.05315        2.38746       -0.03723
H         -3.06833        2.00433       -0.08576
H         -1.28393        3.06667       -0.09418
H         -0.26307       -2.80338        0.11684
H         -2.71407       -2.95955        0.14884
H          2.94569        0.43142        0.05547
H         -5.09320        0.62940       -0.02648
H          0.88182        4.20997       -0.11668
H         -4.94457       -1.85840        0.07260
H          3.01078        2.90333       -0.02187
*
